************************************************************************
file with basedata            : cr447_.bas
initial value random generator: 1827805080
************************************************************************
projects                      :  1
jobs (incl. supersource/sink ):  18
horizon                       :  136
RESOURCES
  - renewable                 :  4   R
  - nonrenewable              :  2   N
  - doubly constrained        :  0   D
************************************************************************
PROJECT INFORMATION:
pronr.  #jobs rel.date duedate tardcost  MPM-Time
    1     16      0       17        6       17
************************************************************************
PRECEDENCE RELATIONS:
jobnr.    #modes  #successors   successors
   1        1          3           2   3   4
   2        3          3           5   6   7
   3        3          3           7   8  12
   4        3          3           6  14  17
   5        3          2           8   9
   6        3          2           9  12
   7        3          3           9  14  17
   8        3          2          10  14
   9        3          1          16
  10        3          3          11  13  17
  11        3          1          15
  12        3          2          13  15
  13        3          1          16
  14        3          1          15
  15        3          1          18
  16        3          1          18
  17        3          1          18
  18        1          0        
************************************************************************
REQUESTS/DURATIONS:
jobnr. mode duration  R 1  R 2  R 3  R 4  N 1  N 2
------------------------------------------------------------------------
  1      1     0       0    0    0    0    0    0
  2      1     2      10    9    3    7    6    3
         2     5       9    7    2    7    4    3
         3     5      10    5    2    4    6    2
  3      1     3       7    6    8    1    5   10
         2     6       4    5    7    1    5   10
         3    10       2    2    7    1    4    9
  4      1     3       3    9   10    6    4    4
         2     7       3    7    8    5    4    4
         3     9       2    7    6    5    4    2
  5      1     3       6    3    7    5    4    9
         2     5       6    2    7    4    3    9
         3    10       5    1    6    2    3    8
  6      1     5       9    7    9    5    8    9
         2     7       7    6    8    5    6    6
         3    10       2    5    5    4    4    4
  7      1     2       6    9    7    5    9    9
         2     6       6    8    7    5    9    7
         3     8       5    7    6    2    8    2
  8      1     1       8    9    5    8    8    8
         2     3       7    8    5    8    4    7
         3    10       5    8    4    6    3    2
  9      1     2       7    8    8    3    8    7
         2     8       6    7    8    2    3    5
         3    10       5    5    4    1    1    3
 10      1     1       8    9    5    6    2    6
         2     3       6    5    3    6    1    6
         3     5       5    4    2    5    1    2
 11      1     1       8    3    7   10    7    6
         2     3       8    2    5    8    6    6
         3     7       4    2    4    5    5    2
 12      1     3       9    7    6    6    7    5
         2     7       9    6    5    3    6    5
         3    10       7    5    4    3    3    2
 13      1     3       9    7    8    9    5    7
         2     8       8    5    6    8    3    5
         3    10       8    1    4    7    1    4
 14      1     2       5    3    7    4    7    3
         2     7       5    3    4    3    4    2
         3     8       3    2    3    3    1    1
 15      1     6       8    3    7   10    7    5
         2     9       7    3    5    9    4    5
         3    10       5    3    4    9    3    5
 16      1     3       6    4   10    7    3    6
         2     5       5    4    9    7    3    5
         3     6       5    4    9    6    2    3
 17      1     2       6    3    8    8    7    2
         2     4       5    3    6    7    5    2
         3     8       3    2    4    7    5    1
 18      1     0       0    0    0    0    0    0
************************************************************************
RESOURCEAVAILABILITIES:
  R 1  R 2  R 3  R 4  N 1  N 2
   23   20   26   23   75   76
************************************************************************
